
--- Job bchfcnet.gms Start 02/08/22 12:19:17 34.3.0 rac355f3 WEX-WEI x86 64bit/MS Windows
--- Applying:
    C:\GAMS\34\gmsprmNT.txt
--- GAMS Parameters defined
    Input C:\Users\dekhi\Desktop\gamsworld\FCNetLib\test\bchfcnet.gms
    PageSize 0
    ScrDir C:\Users\dekhi\Desktop\gamsworld\FCNetLib\test\225a\
    SysDir C:\GAMS\34\
    LogOption 3
    ErrMsg 1
    ErrorLog 99
    IDE 1
    ResLim 3600
    LstTitleLeftAligned 1
Licensee: Eval License                                   S211214|0002AW-GEN
          Ostfalia Hochschule fuer angewandte Wissenschaften        DCE1645
          C:\Users\dekhi\Documents\GAMS\gamslice.txt
          License Admin: Mohamed Ali Dekhil, dekhil.medali@gmail.com       
          Evaluation license: Not for commercial or production use
GAMS 34.3.0   Copyright (C) 1987-2021 GAMS Development. All rights reserved
--- Starting compilation
--- bchfcnet.gms(34) 2 Mb
--- . decl.gms(15) 2 Mb
--- bchfcnet.gms(38) 2 Mb
--- . g50x170.inc(396) 3 Mb
--- bchfcnet.gms(67) 3 Mb
--- . equs.gms(20) 3 Mb
--- bchfcnet.gms(97) 3 Mb
--- call rm -f bchout_i.gdx startcut.txt startheur.txt cuthist.gdx agap.txt rgap.txt cntfail.txt
--- bchfcnet.gms(118) 3 Mb
--- Starting execution: elapsed 0:00:00.080
--- bchfcnet.gms(454) 4 Mb
--- GDX File (execute_unload) C:\Users\dekhi\Desktop\gamsworld\FCNetLib\test\net.gdx
--- bchfcnet.gms(545) 4 Mb
--- GDXin=C:\Users\dekhi\Desktop\gamsworld\FCNetLib\test\points\g50x170.gdx
--- GDX File (execute_load) C:\Users\dekhi\Desktop\gamsworld\FCNetLib\test\points\g50x170.gdx
--- Generating MIP model master
--- bchfcnet.gms(549) 4 Mb
---   221 rows  341 columns  1,021 non-zeroes
---   170 discrete-columns
--- Executing CPLEX (Solvelink=2): elapsed 0:00:00.106

IBM ILOG CPLEX   34.3.0 rac355f3 Released Feb 25, 2021 WEI x86 64bit/MS Window

--- GAMS/Cplex Link licensed for continuous and discrete problems.

Reading parameter(s) from "C:\Users\dekhi\Desktop\gamsworld\FCNetLib\test\cplex.op2"
>>  mipstart 1
Finished reading from "C:\Users\dekhi\Desktop\gamsworld\FCNetLib\test\cplex.op2"

--- Space for names approximately 0.01 Mb
--- Use option 'names no' to turn use of names off
--- GMO memory 0.57 Mb (peak 0.57 Mb)
--- Dictionary memory 0.00 Mb
--- Cplex 20.1.0.0 link memory 0.01 Mb (peak 0.04 Mb)
--- Starting Cplex

Version identifier: 20.1.0.0 | 2020-11-10 | 9bedb6d68
CPXPARAM_Threads                                 1
CPXPARAM_MIP_Display                             4
CPXPARAM_TimeLimit                               3600
CPXPARAM_MIP_Tolerances_AbsMIPGap                0
CPXPARAM_MIP_Tolerances_MIPGap                   0
Generic callback                                 0x50
Processing 1 MIP starts.
MIP start 'm1' defined solution with objective 25576.0000.
1 of 1 MIP starts provided solutions.
MIP start 'm1' defined initial solution with objective 25576.0000.
Tried aggregator 1 time.
MIP Presolve eliminated 49 rows and 1 columns.
MIP Presolve added 98 rows and 0 columns.
Reduced MIP has 269 rows, 340 columns, and 778 nonzeros.
Reduced MIP has 170 binaries, 0 generals, 0 SOSs, and 0 indicators.
Presolve time = 0.00 sec. (0.65 ticks)
Probing fixed 0 vars, tightened 1 bounds.
Probing time = 0.00 sec. (0.05 ticks)
Tried aggregator 1 time.
Detecting symmetries...
MIP Presolve modified 3 coefficients.
Reduced MIP has 269 rows, 340 columns, and 778 nonzeros.
Reduced MIP has 170 binaries, 0 generals, 0 SOSs, and 0 indicators.
Presolve time = 0.00 sec. (0.67 ticks)
Probing time = 0.00 sec. (0.05 ticks)
Clique table members: 1.
MIP emphasis: balance optimality and feasibility.
MIP search method: dynamic search.
Parallel mode: none, using 1 thread.
Tried aggregator 1 time.
LP Presolve eliminated 121 rows and 121 columns.
Aggregator did 49 substitutions.
Reduced LP has 99 rows, 170 columns, and 438 nonzeros.
Presolve time = 0.00 sec. (0.20 ticks)

Iteration log . . .
Iteration:     1   Dual objective     =           169.290000
Iteration:    62   Dual objective     =         10557.833000
Initializing dual steep norms . . .
Root relaxation solution time = 0.00 sec. (0.61 ticks)

        Nodes                                         Cuts/
   Node  Left     Objective  IInf  Best Integer    Best Bound    ItCnt     Gap

*     0+    0                        25576.0000        0.0000           100.00%
Found incumbent of value 25576.000000 after 0.00 sec. (2.52 ticks)
      0     0    10711.5920    43    25576.0000    10711.5920       67   58.12%
      0     0    19836.4558    63    25576.0000     Cuts: 157      144   22.44%
      0     0    22627.2940    82    25576.0000     Cuts: 129      231   11.53%
      0     0    23334.5744    63    25576.0000     Cuts: 125      296    8.76%
      0     0    23825.3412    55    25576.0000      Cuts: 84      359    6.84%
      0     0    23986.0998    69    25576.0000      Cuts: 83      410    6.22%
Detecting symmetries...
      0     0    24188.3084    69    25576.0000      Cuts: 62      464    5.43%
      0     0    24408.3607    71    25576.0000      Cuts: 85      521    4.57%
      0     0    24469.5247    72    25576.0000      Cuts: 38      563    4.33%
      0     0    24509.7329    77    25576.0000      Cuts: 61      603    4.17%
      0     0    24546.6900    64    25576.0000      Cuts: 26      628    4.02%
      0     0    24562.4710    71    25576.0000      Cuts: 23      654    3.96%
      0     0    24587.7011    69    25576.0000      Cuts: 37      675    3.86%
      0     0    24668.0462    81    25576.0000      Cuts: 25      713    3.55%
      0     0    24687.4177    68    25576.0000      Cuts: 79      735    3.47%
      0     0    24700.9612    69    25576.0000      Cuts: 22      765    3.42%
      0     0    24707.4239    67    25576.0000      Cuts: 14      784    3.40%
      0     0    24717.4805    66    25576.0000      Cuts: 17      801    3.36%
      0     0    24738.1234    73    25576.0000      Cuts: 18      824    3.28%
      0     0    24739.5560    75    25576.0000      Cuts: 17      828    3.27%
      0     0    24747.5297    80    25576.0000      Cuts: 15      854    3.24%
      0     0    24749.6020    87    25576.0000      Cuts: 27      873    3.23%
Detecting symmetries...
      0     2    24749.6020    87    25576.0000    24750.6447      873    3.23%
Elapsed time = 0.14 sec. (117.48 ticks, tree = 0.01 MB, solutions = 1)
    324   160    25368.1319    33    25576.0000    25034.7750     8307    2.12%
                                                     Cuts: 60                  
    609   129        cutoff          25576.0000    25412.3682    15457    0.64%
                                                     Cuts: 18                  

Cover cuts applied:  23
Implied bound cuts applied:  29
Flow cuts applied:  154
Mixed integer rounding cuts applied:  22
Flow path cuts applied:  23
Zero-half cuts applied:  2
Multi commodity flow cuts applied:  2
Gomory fractional cuts applied:  18

Root node processing (before b&c):
  Real time             =    0.16 sec. (117.47 ticks)
Sequential b&c:
  Real time             =    0.47 sec. (544.37 ticks)
                          ------------
Total (root+branch&cut) =    0.63 sec. (661.84 ticks)

--- MIP status (101): integer optimal solution.
--- Cplex Time: 0.62sec (det. 661.84 ticks)

--- Fixing integer variables and solving final LP...

Version identifier: 20.1.0.0 | 2020-11-10 | 9bedb6d68
CPXPARAM_Advance                                 2
CPXPARAM_Threads                                 1
CPXPARAM_MIP_Display                             4
CPXPARAM_TimeLimit                               3600
CPXPARAM_MIP_Tolerances_AbsMIPGap                0
CPXPARAM_MIP_Tolerances_MIPGap                   0
Tried aggregator 1 time.
LP Presolve eliminated 220 rows and 341 columns.
All rows and columns eliminated.
Presolve time = 0.00 sec. (0.12 ticks)

--- Fixed MIP status (1): optimal.
--- Cplex Time: 0.00sec (det. 0.22 ticks)


Proven optimal solution
MIP Solution:        25576.000000    (17214 iterations, 791 nodes)
Final Solve:         25576.000000    (0 iterations)

Best possible:       25576.000000
Absolute gap:            0.000000
Relative gap:            0.000000

--- Reading solution for model master
*** Status: Normal completion
--- Job bchfcnet.gms Stop 02/08/22 12:19:18 elapsed 0:00:00.767
